(set-info :origin "NTS benchmark converted to SMT-LIB2 using Eldarica (http://lara.epfl.ch/w/eldarica)")
(set-logic HORN)
(declare-fun REC_f_f ((_ BitVec 32) (_ BitVec 32) (_ BitVec 32) (_ BitVec 32) (_ BitVec 32)) Bool)
(declare-fun REC__f ((_ BitVec 32) (_ BitVec 32) (_ BitVec 32)) Bool)
(declare-fun REC_f_ ((_ BitVec 32) (_ BitVec 32)) Bool)
(assert (not (exists ((A (_ BitVec 32)) (B (_ BitVec 32)) (C (_ BitVec 32)) (D (_ BitVec 32)) (E (_ BitVec 32)))(and (and (and (not (= A B)) (= (bvmul (bvneg (_ bv1 32)) C) (_ bv0 32))) (REC_f_f D A E C B)) (= D E)))))
(assert (forall ((A (_ BitVec 32)) (B (_ BitVec 32)) (C (_ BitVec 32)) (D (_ BitVec 32)) (E (_ BitVec 32)) (F (_ BitVec 32)) (G (_ BitVec 32)))(=> (and (and (and (and (and (and (= (bvmul (bvneg (_ bv1 32)) B) (_ bv0 32)) (= (bvadd C (bvneg (_ bv1 32))) F)) (= (bvadd (bvadd C D) (bvneg (_ bv31 32))) G)) (REC__f F G E)) (bvsge (bvadd (bvadd (bvadd C D) (bvneg (_ bv16 32))) (bvneg (_ bv1 32))) (_ bv0 32))) (not (bvsle C (_ bv0 32)))) (bvsle A (_ bv0 32))) (REC_f_f A B C D E))))
(assert (forall ((A (_ BitVec 32)) (B (_ BitVec 32)) (C (_ BitVec 32)) (D (_ BitVec 32)) (E (_ BitVec 32)) (F (_ BitVec 32)) (G (_ BitVec 32)))(=> (and (and (and (and (and (and (= (bvmul (bvneg (_ bv1 32)) B) (_ bv0 32)) (= (bvadd C (bvneg (_ bv1 32))) F)) (= (bvadd C D) G)) (REC__f F G E)) (not (bvsge (bvadd (bvadd (bvadd C D) (bvneg (_ bv16 32))) (bvneg (_ bv1 32))) (_ bv0 32)))) (not (bvsle C (_ bv0 32)))) (bvsle A (_ bv0 32))) (REC_f_f A B C D E))))
(assert (forall ((A (_ BitVec 32)) (B (_ BitVec 32)) (C (_ BitVec 32)) (D (_ BitVec 32)))(=> (and (and (= (bvmul (bvneg (_ bv1 32)) B) (_ bv0 32)) (bvsle C (_ bv0 32))) (bvsle A (_ bv0 32))) (REC_f_f A B C D D))))
(assert (forall ((A (_ BitVec 32)) (B (_ BitVec 32)) (C (_ BitVec 32)) (D (_ BitVec 32)) (E (_ BitVec 32)) (F (_ BitVec 32)) (G (_ BitVec 32)) (H (_ BitVec 32)) (I (_ BitVec 32)))(=> (and (and (and (and (and (and (and (and (= (bvadd (bvadd F A) (bvneg (_ bv32 32))) B) (bvsge (bvadd (bvadd (bvadd F A) (bvneg (_ bv15 32))) (bvneg (_ bv1 32))) (_ bv0 32))) (= (bvadd A (bvneg (_ bv1 32))) G)) (= (bvadd C (bvneg (_ bv1 32))) H)) (= (bvadd (bvadd C D) (bvneg (_ bv31 32))) I)) (REC_f_f G F H I E)) (bvsge (bvadd (bvadd (bvadd C D) (bvneg (_ bv16 32))) (bvneg (_ bv1 32))) (_ bv0 32))) (not (bvsle C (_ bv0 32)))) (not (bvsle A (_ bv0 32)))) (REC_f_f A B C D E))))
(assert (forall ((A (_ BitVec 32)) (B (_ BitVec 32)) (C (_ BitVec 32)) (D (_ BitVec 32)) (E (_ BitVec 32)) (F (_ BitVec 32)) (G (_ BitVec 32)) (H (_ BitVec 32)) (I (_ BitVec 32)))(=> (and (and (and (and (and (and (and (and (= (bvadd F A) B) (not (bvsge (bvadd (bvadd (bvadd F A) (bvneg (_ bv15 32))) (bvneg (_ bv1 32))) (_ bv0 32)))) (= (bvadd A (bvneg (_ bv1 32))) G)) (= (bvadd C (bvneg (_ bv1 32))) H)) (= (bvadd (bvadd C D) (bvneg (_ bv31 32))) I)) (REC_f_f G F H I E)) (bvsge (bvadd (bvadd (bvadd C D) (bvneg (_ bv16 32))) (bvneg (_ bv1 32))) (_ bv0 32))) (not (bvsle C (_ bv0 32)))) (not (bvsle A (_ bv0 32)))) (REC_f_f A B C D E))))
(assert (forall ((A (_ BitVec 32)) (B (_ BitVec 32)) (C (_ BitVec 32)) (D (_ BitVec 32)) (E (_ BitVec 32)) (F (_ BitVec 32)) (G (_ BitVec 32)) (H (_ BitVec 32)) (I (_ BitVec 32)))(=> (and (and (and (and (and (and (and (and (= (bvadd (bvadd F A) (bvneg (_ bv32 32))) B) (bvsge (bvadd (bvadd (bvadd F A) (bvneg (_ bv15 32))) (bvneg (_ bv1 32))) (_ bv0 32))) (= (bvadd A (bvneg (_ bv1 32))) G)) (= (bvadd C (bvneg (_ bv1 32))) H)) (= (bvadd C D) I)) (REC_f_f G F H I E)) (not (bvsge (bvadd (bvadd (bvadd C D) (bvneg (_ bv16 32))) (bvneg (_ bv1 32))) (_ bv0 32)))) (not (bvsle C (_ bv0 32)))) (not (bvsle A (_ bv0 32)))) (REC_f_f A B C D E))))
(assert (forall ((A (_ BitVec 32)) (B (_ BitVec 32)) (C (_ BitVec 32)) (D (_ BitVec 32)) (E (_ BitVec 32)) (F (_ BitVec 32)) (G (_ BitVec 32)) (H (_ BitVec 32)) (I (_ BitVec 32)))(=> (and (and (and (and (and (and (and (and (= (bvadd F A) B) (not (bvsge (bvadd (bvadd (bvadd F A) (bvneg (_ bv15 32))) (bvneg (_ bv1 32))) (_ bv0 32)))) (= (bvadd A (bvneg (_ bv1 32))) G)) (= (bvadd C (bvneg (_ bv1 32))) H)) (= (bvadd C D) I)) (REC_f_f G F H I E)) (not (bvsge (bvadd (bvadd (bvadd C D) (bvneg (_ bv16 32))) (bvneg (_ bv1 32))) (_ bv0 32)))) (not (bvsle C (_ bv0 32)))) (not (bvsle A (_ bv0 32)))) (REC_f_f A B C D E))))
(assert (forall ((A (_ BitVec 32)) (B (_ BitVec 32)) (C (_ BitVec 32)) (D (_ BitVec 32)) (E (_ BitVec 32)) (F (_ BitVec 32)))(=> (and (and (and (and (and (= (bvadd E A) B) (not (bvsge (bvadd (bvadd (bvadd E A) (bvneg (_ bv15 32))) (bvneg (_ bv1 32))) (_ bv0 32)))) (= (bvadd A (bvneg (_ bv1 32))) F)) (REC_f_ F E)) (bvsle C (_ bv0 32))) (not (bvsle A (_ bv0 32)))) (REC_f_f A B C D D))))
(assert (forall ((A (_ BitVec 32)) (B (_ BitVec 32)) (C (_ BitVec 32)) (D (_ BitVec 32)) (E (_ BitVec 32)) (F (_ BitVec 32)))(=> (and (and (and (and (and (= (bvadd (bvadd E A) (bvneg (_ bv32 32))) B) (bvsge (bvadd (bvadd (bvadd E A) (bvneg (_ bv15 32))) (bvneg (_ bv1 32))) (_ bv0 32))) (= (bvadd A (bvneg (_ bv1 32))) F)) (REC_f_ F E)) (bvsle C (_ bv0 32))) (not (bvsle A (_ bv0 32)))) (REC_f_f A B C D D))))
(assert (forall ((A (_ BitVec 32)) (B (_ BitVec 32)))(=> (and (= (bvmul (bvneg (_ bv1 32)) B) (_ bv0 32)) (bvsle A (_ bv0 32))) (REC_f_ A B))))
(assert (forall ((A (_ BitVec 32)) (B (_ BitVec 32)) (C (_ BitVec 32)) (D (_ BitVec 32)))(=> (and (and (and (and (= (bvadd (bvadd C A) (bvneg (_ bv32 32))) B) (bvsge (bvadd (bvadd (bvadd C A) (bvneg (_ bv15 32))) (bvneg (_ bv1 32))) (_ bv0 32))) (= (bvadd A (bvneg (_ bv1 32))) D)) (REC_f_ D C)) (not (bvsle A (_ bv0 32)))) (REC_f_ A B))))
(assert (forall ((A (_ BitVec 32)) (B (_ BitVec 32)) (C (_ BitVec 32)) (D (_ BitVec 32)))(=> (and (and (and (and (= (bvadd C A) B) (not (bvsge (bvadd (bvadd (bvadd C A) (bvneg (_ bv15 32))) (bvneg (_ bv1 32))) (_ bv0 32)))) (= (bvadd A (bvneg (_ bv1 32))) D)) (REC_f_ D C)) (not (bvsle A (_ bv0 32)))) (REC_f_ A B))))
(assert (forall ((A (_ BitVec 32)) (B (_ BitVec 32)))(=> (bvsle A (_ bv0 32)) (REC__f A B B))))
(assert (forall ((A (_ BitVec 32)) (B (_ BitVec 32)) (C (_ BitVec 32)) (D (_ BitVec 32)) (E (_ BitVec 32)))(=> (and (and (and (and (= (bvadd A (bvneg (_ bv1 32))) D) (= (bvadd A B) E)) (REC__f D E C)) (not (bvsge (bvadd (bvadd (bvadd A B) (bvneg (_ bv16 32))) (bvneg (_ bv1 32))) (_ bv0 32)))) (not (bvsle A (_ bv0 32)))) (REC__f A B C))))
(assert (forall ((A (_ BitVec 32)) (B (_ BitVec 32)) (C (_ BitVec 32)) (D (_ BitVec 32)) (E (_ BitVec 32)))(=> (and (and (and (and (= (bvadd A (bvneg (_ bv1 32))) D) (= (bvadd (bvadd A B) (bvneg (_ bv31 32))) E)) (REC__f D E C)) (bvsge (bvadd (bvadd (bvadd A B) (bvneg (_ bv16 32))) (bvneg (_ bv1 32))) (_ bv0 32))) (not (bvsle A (_ bv0 32)))) (REC__f A B C))))
(check-sat)
